QBPP_HJ-_35_025_06_2
35 328 67
34 13 49 18 48 33 22 19 24 46 27 10 26 25 46 30 17 21 33 34 49 1 14 28 34 20 40 46 20 25 50 18 22 20 22
     0     0     0     0   -94     0   -86   -62   -83     0   -49     0   -36     0     0   -82     0   -42     0     0     0   -21     0     0     0     0     0     0     0     0     0   -37   -80     0     0
     0     0   -42     0     0     0   -65     0    -1     0    -9     0     0   -18     0     0   -31   -18   -68    -1     0     0     0   -43     0     0     0     0     0     0     0   -60   -23     0     0
     0   -42     0     0     0     0   -76     0     0   -98     0   -28   -23   -10     0   -58     0     0     0     0     0   -98    -8   -80     0     0     0     0   -83   -70   -82     0     0     0     0
     0     0     0     0     0     0     0   -95     0   -82     0     0     0     0     0     0     0   -62   -66     0     0     0     0     0     0     0     0     0     0   -76     0   -99     0     0     0
   -94     0     0     0     0     0   -94     0     0   -61     0     0     0     0     0     0     0     0     0   -19     0     0     0     0   -18   -46   -93     0     0     0   -93     0   -98   -82     0
     0     0     0     0     0     0     0     0     0     0     0     0     0   -10     0    -1   -13     0   -39     0     0   -94     0     0     0     0     0     0     0     0     0     0     0     0     0
   -86   -65   -76     0   -94     0     0   -32     0     0     0   -39     0   -86   -25   -75    -7     0     0     0     0     0     0     0   -19     0   -63     0     0     0   -10   -24   -72     0     0
   -62     0     0   -95     0     0   -32     0     0     0     0     0     0     0     0     0   -73     0   -67     0     0     0     0     0   -81     0     0     0    -3     0    -8     0     0   -25   -46
   -83    -1     0     0     0     0     0     0     0     0     0     0     0     0     0     0     0     0     0   -95   -45   -98   -29     0   -54     0     0     0     0     0   -98     0   -62     0   -99
     0     0   -98   -82   -61     0     0     0     0     0     0   -12    -1   -84   -94     0     0     0     0   -84     0     0     0     0     0     0   -26     0     0     0     0     0     0     0     0
   -49    -9     0     0     0     0     0     0     0     0     0     0     0     0   -78   -78   -74     0     0     0     0     0     0     0     0     0   -38     0     0     0     0     0     0   -71   -75
     0     0   -28     0     0     0   -39     0     0   -12     0     0     0     0     0     0     0   -85     0     0     0   -65     0     0     0   -29   -57     0     0     0     0   -78     0     0     0
   -36     0   -23     0     0     0     0     0     0    -1     0     0     0     0     0   -52     0     0   -62     0   -54     0     0     0     0   -98     0     0     0   -59     0     0     0     0     0
     0   -18   -10     0     0   -10   -86     0     0   -84     0     0     0     0     0   -32     0     0     0     0     0     0   -11     0     0     0     0     0     0     0     0     0     0   -23   -42
     0     0     0     0     0     0   -25     0     0   -94   -78     0     0     0     0     0     0     0     0     0   -29     0     0   -71     0   -45     0     0     0     0     0     0     0     0   -18
   -82     0   -58     0     0    -1   -75     0     0     0   -78     0   -52   -32     0     0     0     0     0     0     0   -61   -79     0     0     0     0     0     0     0     0   -60     0     0     0
     0   -31     0     0     0   -13    -7   -73     0     0   -74     0     0     0     0     0     0     0     0     0     0     0     0   -33     0     0     0     0   -55     0     0     0     0     0     0
   -42   -18     0   -62     0     0     0     0     0     0     0   -85     0     0     0     0     0     0     0     0     0     0     0   -58   -90   -70     0   -24   -20     0     0   -17     0     0     0
     0   -68     0   -66     0   -39     0   -67     0     0     0     0   -62     0     0     0     0     0     0   -74     0   -29     0     0     0   -49   -16     0     0     0     0     0     0     0   -35
     0    -1     0     0   -19     0     0     0   -95   -84     0     0     0     0     0     0     0     0   -74     0     0   -15     0     0     0   -84     0     0     0     0   -58     0     0     0     0
     0     0     0     0     0     0     0     0   -45     0     0     0   -54     0   -29     0     0     0     0     0     0     0     0     0   -87  -100     0     0     0   -22     0     0   -33     0     0
   -21     0   -98     0     0   -94     0     0   -98     0     0   -65     0     0     0   -61     0     0   -29   -15     0     0     0     0     0     0     0     0     0   -43     0     0     0     0   -61
     0     0    -8     0     0     0     0     0   -29     0     0     0     0   -11     0   -79     0     0     0     0     0     0     0     0     0     0   -44     0     0  -100     0   -72     0     0     0
     0   -43   -80     0     0     0     0     0     0     0     0     0     0     0   -71     0   -33   -58     0     0     0     0     0     0   -34     0     0   -85    -8     0   -34   -27     0   -46     0
     0     0     0     0   -18     0   -19   -81   -54     0     0     0     0     0     0     0     0   -90     0     0   -87     0     0   -34     0     0     0     0   -13   -39   -32     0     0     0   -13
     0     0     0     0   -46     0     0     0     0     0     0   -29   -98     0   -45     0     0   -70   -49   -84  -100     0     0     0     0     0     0     0     0     0     0   -30     0     0   -34
     0     0     0     0   -93     0   -63     0     0   -26   -38   -57     0     0     0     0     0     0   -16     0     0     0   -44     0     0     0     0     0     0     0     0     0   -26   -65     0
     0     0     0     0     0     0     0     0     0     0     0     0     0     0     0     0     0   -24     0     0     0     0     0   -85     0     0     0     0     0     0     0     0     0     0     0
     0     0   -83     0     0     0     0    -3     0     0     0     0     0     0     0     0   -55   -20     0     0     0     0     0    -8   -13     0     0     0     0     0   -13     0     0     0   -32
     0     0   -70   -76     0     0     0     0     0     0     0     0   -59     0     0     0     0     0     0     0   -22   -43  -100     0   -39     0     0     0     0     0     0     0   -93     0   -35
     0     0   -82     0   -93     0   -10    -8   -98     0     0     0     0     0     0     0     0     0     0   -58     0     0     0   -34   -32     0     0     0   -13     0     0   -56    -5    -3     0
   -37   -60     0   -99     0     0   -24     0     0     0     0   -78     0     0     0   -60     0   -17     0     0     0     0   -72   -27     0   -30     0     0     0     0   -56     0   -10   -62     0
   -80   -23     0     0   -98     0   -72     0   -62     0     0     0     0     0     0     0     0     0     0     0   -33     0     0     0     0     0   -26     0     0   -93    -5   -10     0     0     0
     0     0     0     0   -82     0     0   -25     0     0   -71     0     0   -23     0     0     0     0     0     0     0     0     0   -46     0     0   -65     0     0     0    -3   -62     0     0     0
     0     0     0     0     0     0     0   -46   -99     0   -75     0     0   -42   -18     0     0     0   -35     0     0   -61     0     0   -13   -34     0     0   -32   -35     0     0     0     0     0
